



11 11
3 4 6 4 0 8 9 12 8 2 4 9 7 16 1 14 5 15 2 19 10 13
9 3 1 3 2 3 7 14 0 2 5 1 10 2 4 7 3 15 6 18 8 1
6 18 8 6 0 7 5 10 2 13 7 16 10 17 9 7 4 16 1 18 3 7
4 12 1 5 8 14 0 18 2 17 6 7 10 10 3 19 9 7 7 14 5 14
3 3 4 4 0 6 2 7 1 19 7 12 6 11 8 2 9 16 5 7 10 17
5 16 10 7 4 8 3 10 9 14 6 11 1 1 0 15 8 15 7 6 2 2
6 17 2 17 7 4 0 14 3 17 5 12 1 2 9 2 10 10 4 19 8 17
3 2 4 6 10 15 9 11 6 2 7 19 0 11 1 7 5 3 2 11 8 19
9 6 1 12 8 13 10 8 6 19 7 16 2 16 4 5 5 16 3 1 0 18
8 1 10 16 7 7 3 5 4 18 0 13 6 18 1 8 5 5 2 3 9 12
10 19 0 3 8 1 1 16 9 8 4 13 5 3 3 1 2 12 6 11 7 6
